workspace_BA/ba-solver/src/main/resources/input_graphs/reference_set_d2/watts_strog_n_60_k_6_p_0.4_0.gr
p td 60 180
0 59
0 2
0 57
0 56
0 42
1 3
1 4
1 58
1 6
1 38
2 4
2 5
2 59
2 58
2 34
3 4
3 5
3 6
3 31
4 5
4 7
4 15
4 13
4 47
5 6
5 7
5 44
5 55
6 8
6 9
6 51
6 16
7 8
7 9
7 10
7 24
8 9
8 10
8 11
9 10
9 12
9 27
9 33
9 16
10 11
10 12
10 13
11 13
11 14
11 24
11 27
12 13
12 15
12 26
13 16
13 56
14 16
14 17
14 45
14 19
14 36
15 16
15 17
15 57
16 37
16 53
16 20
17 18
17 19
17 32
17 41
17 30
17 23
17 21
18 19
18 20
18 44
19 21
19 22
19 28
19 57
20 21
20 22
20 33
20 44
21 22
21 59
22 23
22 25
22 47
23 24
23 25
23 26
23 42
24 26
24 27
25 27
25 40
25 34
26 27
26 38
26 40
27 30
28 29
28 31
28 53
29 30
29 31
29 32
30 31
30 33
30 59
31 44
31 40
32 34
32 35
32 54
33 36
33 42
34 35
34 36
34 41
35 36
35 37
35 38
35 42
36 38
36 59
37 39
37 52
38 41
38 50
38 58
39 40
39 42
39 57
40 42
40 43
40 48
40 46
41 44
42 45
42 53
43 45
43 46
43 56
44 51
45 46
45 47
45 48
45 49
45 54
46 48
46 49
46 56
47 48
47 50
47 51
48 49
48 50
48 51
49 50
49 51
50 51
50 52
50 53
50 55
51 53
51 54
52 53
52 54
52 55
53 54
54 55
55 57
55 58
56 58
56 59
56 57
58 59
